 vasp.5.3.6 23Jan15 (build Feb 02 2016 19:35:31) gamma-only

 executed on           IFC91_ompi date 2016.04.07  19:53:33

 INCAR:
 POTCAR:    PAW_PBE C_GW_new 19Mar2012
 POTCAR:    PAW_PBE Ge_GW 04Okt2005

 POTCAR:    PAW_PBE C_GW_new 19Mar2012
   VRHFIN =C: s2p2

   TITEL  = PAW_PBE C_GW_new 19Mar2012
   POMASS =   12.011; ZVAL   =    4.000    mass and valenz
   ENMAX  =  413.992; ENMIN  =  310.494 eV

 POTCAR:    PAW_PBE Ge_GW 04Okt2005
   VRHFIN =Ge: s2p2

   TITEL  = PAW_PBE Ge_GW 04Okt2005
   POMASS =   72.610; ZVAL   =    4.000    mass and valenz
   ENMAX  =  173.807; ENMIN  =  130.355 eV

 Optimization of the real space projectors (new method)

 maximal supplied QI-value         = 23.62
 optimisation between [QCUT,QGAM] = [ 10.16, 20.31] = [ 28.89,115.56] Ry
 Optimized for a Real-space Cutoff    1.80 Angstroem

   l    n(q)    QCUT    max X(q) W(low)/X(q) W(high)/X(q)  e(spline)
   0     11    10.157    88.457    0.43E-03    0.10E-02    0.15E-04
   0     11    10.157    66.567    0.43E-03    0.10E-02    0.15E-04
   0     11    10.157     0.672    0.27E-03    0.61E-03    0.83E-05
   1     11    10.157     2.978    0.64E-06    0.34E-05    0.30E-06
   1     11    10.157     2.423    0.27E-04    0.25E-04    0.10E-05
   2     10    10.157     2.026    0.25E-05    0.27E-04    0.92E-06
   2     10    10.157     1.903    0.13E-04    0.84E-04    0.14E-05
 Optimization of the real space projectors (new method)

 maximal supplied QI-value         = 16.25
 optimisation between [QCUT,QGAM] = [ 10.24, 20.48] = [ 29.35,117.42] Ry
 Optimized for a Real-space Cutoff    1.26 Angstroem

   l    n(q)    QCUT    max X(q) W(low)/X(q) W(high)/X(q)  e(spline)
   0      8    10.239    11.876    0.39E-04    0.12E-03    0.41E-07
   0      8    10.239     5.687    0.14E-03    0.27E-03    0.89E-07
   1      7    10.239     6.266    0.27E-03    0.16E-03    0.47E-07
   1      7    10.239     2.088    0.43E-03    0.33E-03    0.60E-07
   2      7    10.239     4.673    0.32E-03    0.25E-03    0.41E-07
  PAW_PBE C_GW_new 19Mar2012            :
  PAW_PBE Ge_GW 04Okt2005               :

 POSCAR: C
  positions in cartesian coordinates
 exchange correlation table for  LEXCH =        8
   RHO(1)=    0.500       N(1)  =     2000
   RHO(2)=  100.500       N(2)  =     4000

 ion  position               nearest neighbor table
   1  0.000  0.000  0.000-   2 1.54  20 1.54  38 1.54  74 1.54
   2  0.062  0.062  0.062-   1 1.54   3 1.54   5 1.54   9 1.54
   3  0.000  0.000  0.250-   2 1.54   4 1.54  40 1.54  76 1.54
   4  0.062  0.062  0.312-   3 1.54   7 1.54  11 1.54  17 1.54
   5  0.000  0.250  0.000-   2 1.54   6 1.54  24 1.54  78 1.54
   6  0.062  0.312  0.062-   5 1.54   7 1.54  13 1.54  33 1.54
   7  0.000  0.250  0.250-   4 1.54   6 1.54   8 1.54  80 1.54
   8  0.062  0.312  0.312-   7 1.54  15 1.54  21 1.54  35 1.54
   9  0.250  0.000  0.000-   2 1.54  10 1.54  28 1.54  46 1.54
  10  0.312  0.062  0.062-   9 1.54  11 1.54  13 1.54  65 1.54
  11  0.250  0.000  0.250-   4 1.54  10 1.54  12 1.54  48 1.54
  12  0.312  0.062  0.312-  11 1.54  15 1.54  25 1.54  67 1.54
  13  0.250  0.250  0.000-   6 1.54  10 1.54  14 1.54  32 1.54
  14  0.312  0.312  0.062-  13 1.54  15 1.54  41 1.54  69 1.54
  15  0.250  0.250  0.250-   8 1.54  12 1.54  14 1.54  16 1.54
  16  0.312  0.312  0.312-  15 1.54  29 1.54  43 1.54  71 1.54
  17  0.000  0.000  0.500-   4 1.54  18 1.54  54 1.54  90 1.54
  18  0.062  0.062  0.562-  17 1.54  19 1.54  21 1.54  25 1.54
  19  0.000  0.000  0.750-  18 1.54  20 1.54  56 1.54  92 1.54
  20  0.062  0.062  0.812-   1 1.54  19 1.54  23 1.54  27 1.54
  21  0.000  0.250  0.500-   8 1.54  18 1.54  22 1.54  94 1.54
  22  0.062  0.312  0.562-  21 1.54  23 1.54  29 1.54  49 1.54
  23  0.000  0.250  0.750-  20 1.54  22 1.54  24 1.54  96 1.54
  24  0.062  0.312  0.812-   5 1.54  23 1.54  31 1.54  51 1.54
  25  0.250  0.000  0.500-  12 1.54  18 1.54  26 1.54  62 1.54
  26  0.312  0.062  0.562-  25 1.54  27 1.54  29 1.54  81 1.54
  27  0.250  0.000  0.750-  20 1.54  26 1.54  28 1.54  64 1.54
  28  0.312  0.062  0.812-   9 1.54  27 1.54  31 1.54  83 1.54
  29  0.250  0.250  0.500-  16 1.54  22 1.54  26 1.54  30 1.54
  30  0.312  0.312  0.562-  29 1.54  31 1.54  57 1.54  85 1.54
  31  0.250  0.250  0.750-  24 1.54  28 1.54  30 1.54  32 1.54
  32  0.312  0.312  0.812-  13 1.54  31 1.54  59 1.54  87 1.54
  33  0.000  0.500  0.000-   6 1.54  34 1.54  52 1.54 106 1.54
  34  0.062  0.562  0.062-  33 1.54  35 1.54  37 1.54  41 1.54
  35  0.000  0.500  0.250-   8 1.54  34 1.54  36 1.54 108 1.54
  36  0.062  0.562  0.312-  35 1.54  39 1.54  43 1.54  49 1.54
  37  0.000  0.750  0.000-  34 1.54  38 1.54  56 1.54 110 1.54
  38  0.062  0.812  0.062-   1 1.54  37 1.54  39 1.54  45 1.54
  39  0.000  0.750  0.250-  36 1.54  38 1.54  40 1.54 112 1.54
  40  0.062  0.812  0.312-   3 1.54  39 1.54  47 1.54  53 1.54
  41  0.250  0.500  0.000-  14 1.54  34 1.54  42 1.54  60 1.54
  42  0.312  0.562  0.062-  41 1.54  43 1.54  45 1.54  97 1.54
  43  0.250  0.500  0.250-  16 1.54  36 1.54  42 1.54  44 1.54
  44  0.312  0.562  0.312-  43 1.54  47 1.54  57 1.54  99 1.54
  45  0.250  0.750  0.000-  38 1.54  42 1.54  46 1.54  64 1.54
  46  0.312  0.812  0.062-   9 1.54  45 1.54  47 1.54 101 1.54
  47  0.250  0.750  0.250-  40 1.54  44 1.54  46 1.54  48 1.54
  48  0.312  0.812  0.312-  11 1.54  47 1.54  61 1.54 103 1.54
  49  0.000  0.500  0.500-  22 1.54  36 1.54  50 1.54 120 1.54
  50  0.062  0.562  0.562-  49 1.54  51 1.54  53 1.54  57 1.54
  51  0.000  0.500  0.750-  24 1.54  50 1.54  52 1.54 122 1.54
  52  0.062  0.562  0.812-  33 1.54  51 1.54  55 1.54  59 1.54
  53  0.000  0.750  0.500-  40 1.54  50 1.54  54 1.54 124 1.54
  54  0.062  0.812  0.562-  17 1.54  53 1.54  55 1.54  61 1.54
  55  0.000  0.750  0.750-  52 1.54  54 1.54  56 1.54 126 1.54
  56  0.062  0.812  0.812-  19 1.54  37 1.54  55 1.54  63 1.54
  57  0.250  0.500  0.500-  30 1.54  44 1.54  50 1.54  58 1.54
  58  0.312  0.562  0.562-  57 1.54  59 1.54  61 1.54 127 1.54
  59  0.250  0.500  0.750-  32 1.54  52 1.54  58 1.54  60 1.54
  60  0.312  0.562  0.812-  41 1.54  59 1.54  63 1.54 113 1.54
[...]
 113  0.500  0.500  0.750-  60 1.54  88 1.54 114 1.54
 114  0.562  0.562  0.812-  97 1.54 113 1.54 117 1.54 121 1.54
 115  0.500  0.750  0.500-  62 1.54 104 1.54 116 1.54
 116  0.562  0.812  0.562-  81 1.54 115 1.54 117 1.54 123 1.54
 117  0.500  0.750  0.750-  64 1.54 114 1.54 116 1.54 118 1.54
 118  0.562  0.812  0.812-  83 1.54 101 1.54 117 1.54 125 1.54
 119  0.750  0.500  0.500-  94 1.54 108 1.54 120 1.54
 120  0.812  0.562  0.562-  49 1.54 119 1.54 121 1.54 123 1.54
 121  0.750  0.500  0.750-  96 1.54 114 1.54 120 1.54 122 1.54
 122  0.812  0.562  0.812-  51 1.54 105 1.54 121 1.54 125 1.54
 123  0.750  0.750  0.500- 112 1.54 116 1.54 120 1.54 124 1.54
 124  0.812  0.812  0.562-  53 1.54  89 1.54 123 1.54 125 1.54
 125  0.750  0.750  0.750- 118 1.54 122 1.54 124 1.54 126 1.54
 126  0.812  0.812  0.812-  55 1.54  91 1.54 109 1.54 125 1.54
 127  0.500  0.500  0.500-  58 1.54  86 1.54 100 1.54

  LATTYP: Found a face centered cubic cell.
 ALAT       =    14.2684036126

  Lattice vectors:

 A1 = (   7.1342018063,   7.1342018063,   0.0000000000)
 A2 = (   0.0000000000,   7.1342018063,   7.1342018063)
 A3 = (   7.1342018063,   0.0000000000,   7.1342018063)

Analysis of symmetry for initial positions (statically):
 Subroutine PRICEL returns:
 Original cell was already a primitive cell.

 Routine SETGRP: Setting up the symmetry group for a
 face centered cubic supercell.

 Subroutine GETGRP returns: Found  6 space group operations
 (whereof  6 operations were pure point group operations)
 out of a pool of 48 trial point group operations.

The static configuration has the point symmetry C_3v.

Analysis of symmetry for dynamics (positions and initial velocities):
 Subroutine PRICEL returns:
 Original cell was already a primitive cell.

 Routine SETGRP: Setting up the symmetry group for a
 face centered cubic supercell.

 Subroutine GETGRP returns: Found  6 space group operations
 (whereof  6 operations were pure point group operations)
 out of a pool of 48 trial point group operations.

The dynamic configuration has the point symmetry C_3v.

 KPOINTS: Automatically generated mesh

Automatic generation of k-mesh.
Space group operators:
 irot       det(A)        alpha          n_x          n_y          n_z        tau_x        tau_y        tau_z
    1     1.000000     0.000000     1.000000     0.000000     0.000000     0.000000     0.000000     0.000000
    2     1.000000   120.000000    -0.577350    -0.577350    -0.577350     0.000000     0.000000     0.000000
    3     1.000000   120.000000     0.577350     0.577350     0.577350     0.000000     0.000000     0.000000
    4    -1.000000   180.000000     0.707107    -0.707107     0.000000     0.000000     0.000000     0.000000
    5    -1.000000   180.000000     0.707107     0.000000    -0.707107     0.000000     0.000000     0.000000
    6    -1.000000   180.000000     0.000000    -0.707107     0.707107     0.000000     0.000000     0.000000

 Subroutine IBZKPT returns following result:

 Found      1 irreducible k-points:

 Following reciprocal coordinates:
            Coordinates               Weight
  0.000000  0.000000  0.000000      1.000000

 Following cartesian coordinates:
            Coordinates               Weight
  0.000000  0.000000  0.000000      1.000000

 Subroutine IBZKPT_HF returns following result:

 Found      1 k-points in 1st BZ
 the following      1 k-points will be used (e.g. in the exchange kernel)
 Following reciprocal coordinates:   # in IRBZ
  0.000000  0.000000  0.000000    1.00000000   1 t-inv F

 I would recommend the setting:
   dimension x,y,z NGX =    49 NGY =   49 NGZ =   49
 SYSTEM =  unknown system
 POSCAR =  C

 Startparameter for this run:
   NWRITE =      2    write-flag & timer
   PREC   = normal    normal or accurate (medium, high low for compatibility)
   ISTART =      0    job   : 0-new  1-cont  2-samecut
   ICHARG =      2    charge: 1-file 2-atom 10-const
   ISPIN  =      1    spin polarized calculation?
   LNONCOLLINEAR =      F non collinear calculations
   LSORBIT =      F    spin-orbit coupling
   INIWAV =      1    electr: 0-lowe 1-rand  2-diag
   LASPH  =      F    aspherical Exc in radial PAW
   METAGGA=      F    non-selfconsistent MetaGGA calc.

 Electronic Relaxation 1
   ENCUT  =  400.0 eV  29.40 Ry    5.42 a.u.  16.45 16.45 16.45*2*pi/ulx,y,z
   ENINI  =  400.0     initial cutoff
   ENAUG  = 1213.9 eV  augmentation charge cutoff
   NELM   =     60;   NELMIN=  2; NELMDL= -5     # of ELM steps
   EDIFF  = 0.1E-03   stopping-criterion for ELM
   LREAL  =      T    real-space projection
   NLSPLINE    = F    spline interpolate recip. space projectors
   LCOMPAT=      F    compatible to vasp.4.4
   GGA_COMPAT  = T    GGA compatible to vasp.4.4-vasp.4.6
   LMAXPAW     = -100 max onsite density
   LMAXMIX     =    2 max onsite mixed and CHGCAR
   VOSKOWN=      0    Vosko Wilk Nusair interpolation
   ROPT   =   -0.00050  -0.00050
 Ionic relaxation
   EDIFFG = 0.1E-02   stopping-criterion for IOM
   NSW    =    100    number of steps for IOM
[...]
     30      -3.1432      2.00000
     31      -3.1346      2.00000
     32      -2.9634      2.00000
     33      -2.9636      2.00000
     34      -2.9474      2.00000
     35      -2.9454      2.00000
     36      -2.9334      2.00000
     37      -2.9266      2.00000
     38      -2.9139      2.00000
     39      -2.9140      2.00000
     40      -2.8996      2.00000
     41      -2.8999      2.00000
     42      -2.8710      2.00000
     43      -2.8711      2.00000
     44      -2.8539      2.00000
     45      -2.8195      2.00000
     46      -2.8197      2.00000
     47      -2.8179      2.00000
     48      -2.8183      2.00000
     49      -2.7718      2.00000
     50      -2.6907      2.00000
     51      -2.6915      2.00000
     52      -2.6308      2.00000
     53      -2.6321      2.00000
     54      -1.9506      2.00000
     55      -1.1107      2.00000
     56      -0.7435      2.00000
     57      -0.7134      2.00000
     58      -0.7135      2.00000
     59      -0.6863      2.00000
     60      -0.1695      2.00000
[...]
    306      20.4441      0.00000
    307      20.4834      0.00000
    308      20.4866      0.00000
    309      20.4923      0.00000
    310      20.5089      0.00000
    311      20.5225      0.00000
    312      20.5439      0.00000
    313      20.5513      0.00000
    314      20.5893      0.00000
    315      20.6143      0.00000
    316      20.6320      0.00000
    317      20.6597      0.00000
    318      20.6882      0.00000
    319      20.7178      0.00000
    320      20.8262      0.00000

 soft charge-density along one line, spin component           1
         0         1         2         3         4         5         6         7         8         9
 total charge-density along one line

------------------------ aborting loop because EDIFF is reached ----------------------------------------

 VOLUME and BASIS-vectors are now :
  energy-cutoff  :      400.00
  volume of cell :      726.22
      direct lattice vectors                 reciprocal lattice vectors
     7.134201806  7.134201806  0.000000000     0.070084925  0.070084925 -0.070084925
     0.000000000  7.134201806  7.134201806    -0.070084925  0.070084925  0.070084925
     7.134201806  0.000000000  7.134201806     0.070084925 -0.070084925  0.070084925

  length of vectors
    10.089284951 10.089284951 10.089284951     0.121390651  0.121390651  0.121390651

 FORCES acting on ions:
    Electron-Ion                     Ewald-Force                    Non-Local-Force
   -.445E-01 -.447E-01 -.447E-01   0.225E-01 0.225E-01 0.225E-01   0.379E-02 0.379E-02 0.379E-02
   0.152E+00 0.152E+00 0.152E+00   -.107E+00 -.107E+00 -.107E+00   -.633E-01 -.633E-01 -.633E-01
   -.171E+00 0.185E+01 -.170E+00   0.268E+00 -.197E+01 0.268E+00   -.103E+00 0.108E+00 -.103E+00
   0.243E+00 0.122E+01 0.243E+00   -.126E+00 -.107E+01 -.126E+00   -.123E+00 -.145E+00 -.123E+00
   0.185E+01 -.172E+00 -.172E+00   -.197E+01 0.268E+00 0.268E+00   0.108E+00 -.103E+00 -.103E+00
   0.122E+01 0.242E+00 0.242E+00   -.107E+01 -.126E+00 -.126E+00   -.145E+00 -.123E+00 -.123E+00
   0.230E+01 0.230E+01 -.544E+01   -.258E+01 -.258E+01 0.575E+01   0.301E+00 0.301E+00 -.305E+00
   0.305E+01 0.305E+01 -.595E+01   -.292E+01 -.292E+01 0.616E+01   -.136E+00 -.136E+00 -.198E+00
   -.172E+00 -.171E+00 0.185E+01   0.268E+00 0.268E+00 -.197E+01   -.103E+00 -.103E+00 0.108E+00
   0.242E+00 0.243E+00 0.122E+01   -.126E+00 -.126E+00 -.107E+01   -.123E+00 -.123E+00 -.145E+00
   -.544E+01 0.230E+01 0.230E+01   0.575E+01 -.258E+01 -.258E+01   -.305E+00 0.301E+00 0.301E+00
   -.595E+01 0.305E+01 0.305E+01   0.616E+01 -.292E+01 -.292E+01   -.198E+00 -.136E+00 -.136E+00
   0.230E+01 -.544E+01 0.230E+01   -.258E+01 0.575E+01 -.258E+01   0.301E+00 -.305E+00 0.301E+00
   0.305E+01 -.595E+01 0.305E+01   -.292E+01 0.616E+01 -.292E+01   -.136E+00 -.198E+00 -.136E+00
   -.363E+01 -.363E+01 -.363E+01   0.332E+01 0.332E+01 0.332E+01   0.321E+00 0.321E+00 0.321E+00
   -.364E+01 -.365E+01 -.365E+01   0.382E+01 0.382E+01 0.382E+01   -.162E+00 -.162E+00 -.162E+00
   0.309E+00 -.492E+01 0.310E+00   -.255E+00 0.376E+01 -.255E+00   -.598E-01 0.119E+01 -.598E-01
   -.438E+00 0.483E+01 -.439E+00   0.398E+00 -.368E+01 0.398E+00   0.344E-01 -.118E+01 0.344E-01
   -.416E+00 -.135E+01 -.416E+00   0.303E+00 0.119E+01 0.303E+00   0.107E+00 0.166E+00 0.107E+00
   0.270E+00 -.152E+01 0.270E+00   -.345E+00 0.166E+01 -.345E+00   0.741E-01 -.159E+00 0.741E-01
   0.340E+01 -.522E+01 -.604E+01   -.398E+01 0.356E+01 0.672E+01   0.598E+00 0.170E+01 -.694E+00
   0.183E+01 -.256E+01 -.478E+01   -.214E+01 0.268E+01 0.469E+01   0.334E+00 -.122E+00 0.956E-01
   0.488E+01 -.196E+01 -.215E+01   -.504E+01 0.203E+01 0.225E+01   0.151E+00 -.748E-01 -.105E+00
   0.198E+01 -.468E+01 0.219E+01   -.206E+01 0.484E+01 -.229E+01   0.825E-01 -.176E+00 0.101E+00
   -.604E+01 -.522E+01 0.340E+01   0.672E+01 0.356E+01 -.398E+01   -.694E+00 0.170E+01 0.598E+00
   -.478E+01 -.256E+01 0.182E+01   0.469E+01 0.268E+01 -.214E+01   0.956E-01 -.122E+00 0.334E+00
   -.215E+01 -.196E+01 0.488E+01   0.225E+01 0.203E+01 -.504E+01   -.105E+00 -.748E-01 0.151E+00
   0.219E+01 -.468E+01 0.198E+01   -.229E+01 0.484E+01 -.206E+01   0.101E+00 -.176E+00 0.825E-01
   -.475E+01 -.858E+01 -.475E+01   0.489E+01 0.867E+01 0.489E+01   -.141E+00 -.922E-01 -.141E+00
   -.372E+01 -.212E+02 -.373E+01   0.391E+01 0.221E+02 0.391E+01   -.187E+00 -.879E+00 -.187E+00
   0.239E+01 -.115E+02 0.239E+01   -.233E+01 0.122E+02 -.233E+01   -.573E-01 -.704E+00 -.573E-01
   0.792E+01 -.262E+02 0.792E+01   -.805E+01 0.266E+02 -.805E+01   0.126E+00 -.458E+00 0.126E+00
   -.491E+01 0.309E+00 0.308E+00   0.376E+01 -.255E+00 -.255E+00   0.119E+01 -.598E-01 -.598E-01
   0.483E+01 -.439E+00 -.438E+00   -.368E+01 0.398E+00 0.398E+00   -.118E+01 0.344E-01 0.344E-01
   -.521E+01 0.340E+01 -.604E+01   0.356E+01 -.398E+01 0.672E+01   0.170E+01 0.598E+00 -.694E+00
   -.256E+01 0.183E+01 -.478E+01   0.268E+01 -.214E+01 0.469E+01   -.122E+00 0.334E+00 0.956E-01
   -.135E+01 -.415E+00 -.414E+00   0.119E+01 0.303E+00 0.303E+00   0.166E+00 0.107E+00 0.107E+00
   -.152E+01 0.271E+00 0.271E+00   0.166E+01 -.345E+00 -.345E+00   -.159E+00 0.741E-01 0.741E-01
   -.196E+01 0.488E+01 -.215E+01   0.203E+01 -.504E+01 0.225E+01   -.748E-01 0.151E+00 -.105E+00
   -.468E+01 0.198E+01 0.219E+01   0.484E+01 -.206E+01 -.229E+01   -.176E+00 0.825E-01 0.101E+00
   -.522E+01 -.604E+01 0.340E+01   0.356E+01 0.672E+01 -.398E+01   0.170E+01 -.694E+00 0.598E+00
   -.256E+01 -.478E+01 0.183E+01   0.268E+01 0.469E+01 -.214E+01   -.122E+00 0.956E-01 0.334E+00
   -.858E+01 -.475E+01 -.475E+01   0.867E+01 0.489E+01 0.489E+01   -.922E-01 -.141E+00 -.141E+00
   -.212E+02 -.373E+01 -.372E+01   0.221E+02 0.391E+01 0.391E+01   -.879E+00 -.187E+00 -.187E+00
   -.196E+01 -.215E+01 0.488E+01   0.203E+01 0.225E+01 -.504E+01   -.748E-01 -.105E+00 0.151E+00
   -.468E+01 0.219E+01 0.198E+01   0.484E+01 -.229E+01 -.206E+01   -.176E+00 0.101E+00 0.825E-01
   -.115E+02 0.239E+01 0.239E+01   0.122E+02 -.233E+01 -.233E+01   -.704E+00 -.573E-01 -.573E-01
   -.262E+02 0.793E+01 0.793E+01   0.266E+02 -.805E+01 -.805E+01   -.458E+00 0.126E+00 0.126E+00
   0.307E+01 0.307E+01 -.525E+01   -.343E+01 -.343E+01 0.625E+01   0.358E+00 0.358E+00 -.101E+01
   -.293E+01 -.293E+01 0.519E+01   0.329E+01 0.329E+01 -.620E+01   -.356E+00 -.356E+00 0.104E+01
   0.274E+01 -.185E+01 0.474E+01   -.285E+01 0.216E+01 -.466E+01   0.110E+00 -.321E+00 -.791E-01
   0.521E+01 -.341E+01 0.599E+01   -.357E+01 0.399E+01 -.666E+01   -.169E+01 -.597E+00 0.677E+00
   -.185E+01 0.274E+01 0.475E+01   0.216E+01 -.285E+01 -.466E+01   -.321E+00 0.110E+00 -.791E-01
   -.341E+01 0.522E+01 0.599E+01   0.399E+01 -.357E+01 -.666E+01   -.597E+00 -.169E+01 0.677E+00
   -.314E+01 -.314E+01 0.571E+01   0.300E+01 0.300E+01 -.593E+01   0.149E+00 0.149E+00 0.219E+00
   -.228E+01 -.227E+01 0.549E+01   0.257E+01 0.257E+01 -.577E+01   -.300E+00 -.300E+00 0.297E+00
   -.215E+02 -.215E+02 0.761E+01   0.225E+02 0.225E+02 -.679E+01   -.106E+01 -.106E+01 -.850E+00
   -.423E+02 -.423E+02 0.493E+02   0.474E+02 0.474E+02 -.532E+02   -.517E+01 -.517E+01 0.400E+01
   -.121E+02 -.221E+02 0.250E+02   0.103E+02 0.234E+02 -.248E+02   0.184E+01 -.130E+01 -.215E+00
   0.120E+02 -.252E+02 0.221E+02   -.102E+02 0.250E+02 -.234E+02   -.183E+01 0.208E+00 0.132E+01
[...]
   0.215E+02 -.747E+01 0.215E+02   -.226E+02 0.665E+01 -.226E+02   0.107E+01 0.844E+00 0.107E+01
   -.494E+02 0.423E+02 0.423E+02   0.534E+02 -.474E+02 -.474E+02   -.404E+01 0.522E+01 0.522E+01
   -.748E+01 0.215E+02 0.215E+02   0.665E+01 -.226E+02 -.226E+02   0.844E+00 0.107E+01 0.107E+01
   0.385E+01 0.386E+01 0.213E+02   -.404E+01 -.404E+01 -.221E+02   0.180E+00 0.180E+00 0.867E+00
   0.474E+01 0.474E+01 0.853E+01   -.490E+01 -.490E+01 -.863E+01   0.156E+00 0.156E+00 0.102E+00
   0.423E+02 0.423E+02 -.494E+02   -.474E+02 -.474E+02 0.534E+02   0.522E+01 0.522E+01 -.404E+01
   0.215E+02 0.215E+02 -.747E+01   -.226E+02 -.226E+02 0.665E+01   0.107E+01 0.107E+01 0.844E+00
   0.213E+02 0.386E+01 0.385E+01   -.221E+02 -.404E+01 -.404E+01   0.867E+00 0.180E+00 0.180E+00
   0.853E+01 0.474E+01 0.474E+01   -.863E+01 -.490E+01 -.490E+01   0.102E+00 0.156E+00 0.156E+00
   0.385E+01 0.213E+02 0.386E+01   -.404E+01 -.221E+02 -.404E+01   0.180E+00 0.867E+00 0.180E+00
   0.474E+01 0.853E+01 0.474E+01   -.490E+01 -.863E+01 -.490E+01   0.156E+00 0.102E+00 0.156E+00
   0.368E+01 0.368E+01 0.368E+01   -.386E+01 -.386E+01 -.386E+01   0.199E+00 0.199E+00 0.199E+00
   0.360E+01 0.361E+01 0.361E+01   -.330E+01 -.330E+01 -.330E+01   -.295E+00 -.295E+00 -.295E+00
   -.210E+00 -.210E+00 -.210E+00   0.202E+00 0.202E+00 0.202E+00   -.207E-01 -.207E-01 -.207E-01
   -.593E-01 -.598E-01 -.596E-01   -.484E-13 0.281E-12 -.119E-13   0.456E-03 0.456E-03 0.456E-03

 POSITION                                       TOTAL-FORCE (eV/Angst)
     -0.00220     -0.00220     -0.00220        -0.017833     -0.017833     -0.017833
      0.88928      0.88928      0.88928        -0.016116     -0.016116     -0.016116
      1.78057     -0.00307      1.78057        -0.002802     -0.008998     -0.002802
      2.67208      0.88872      2.67208        -0.003476      0.010054     -0.003476
     -0.00307      1.78057      1.78057        -0.008998     -0.002802     -0.002802
      0.88872      2.67208      2.67208         0.010054     -0.003476     -0.003476
      1.78203      1.78203      3.56240         0.009463      0.009463      0.007687
      2.67802      2.67802      4.45112        -0.001033     -0.001033      0.016160
      1.78057      1.78057     -0.00307        -0.002802     -0.002802     -0.008998
      2.67208      2.67208      0.88872        -0.003476     -0.003476      0.010054
      3.56240      1.78203      1.78203         0.007687      0.009463      0.009463
      4.45112      2.67802      2.67802         0.016160     -0.001033     -0.001033
      1.78203      3.56240      1.78203         0.009463      0.007687      0.009463
      2.67802      4.45112      2.67802        -0.001033      0.016160     -0.001033
      3.56780      3.56780      3.56780        -0.000109     -0.000109     -0.000109
      4.46487      4.46487      4.46487         0.017523      0.017523      0.017523
      3.56327     -0.00649      3.56327        -0.005068      0.000127     -0.005068
      4.45656      0.89104      4.45656        -0.005583      0.003866     -0.005583
      5.34789     -0.00404      5.34789        -0.007427     -0.002317     -0.007427
      6.23960      0.88882      6.23960        -0.001212     -0.012878     -0.001212
      3.58533      1.78394      5.33236         0.001269     -0.003277      0.000851
      4.46379      2.67909      6.23790         0.008574     -0.001206      0.004982
      5.34855      1.78093      7.13081        -0.005254     -0.004026     -0.000983
      6.23842      2.67104      8.02270         0.004471     -0.007988     -0.001536
      5.33236      1.78394      3.58533         0.000851     -0.003277      0.001269
      6.23790      2.67909      4.46379         0.004982     -0.001206      0.008574
      7.13081      1.78093      5.34855        -0.000983     -0.004026     -0.005254
      8.02270      2.67104      6.23842        -0.001536     -0.007988      0.004471
      5.35955      3.58098      5.35955         0.002964      0.001658      0.002964
      6.25681      4.47791      6.25681         0.000886     -0.001401      0.000886
      7.13527      3.56700      7.13527         0.010277      0.003005      0.010277
      8.02503      4.45145      8.02503        -0.002352     -0.000075     -0.002352
     -0.00649      3.56327      3.56327         0.000127     -0.005068     -0.005068
      0.89104      4.45656      4.45656         0.003866     -0.005583     -0.005583
      1.78394      3.58533      5.33236        -0.003277      0.001269      0.000851
      2.67909      4.46379      6.23790        -0.001206      0.008574      0.004982
     -0.00404      5.34789      5.34789        -0.002317     -0.007427     -0.007427
      0.88882      6.23960      6.23960        -0.012878     -0.001212     -0.001212
      1.78093      5.34855      7.13081        -0.004026     -0.005254     -0.000983
      2.67104      6.23842      8.02270        -0.007988      0.004471     -0.001536
      1.78394      5.33236      3.58533        -0.003277      0.000851      0.001269
      2.67909      6.23790      4.46379        -0.001206      0.004982      0.008574
      3.58098      5.35955      5.35955         0.001658      0.002964      0.002964
      4.47791      6.25681      6.25681        -0.001401      0.000886      0.000886
      1.78093      7.13081      5.34855        -0.004026     -0.000983     -0.005254
      2.67104      8.02270      6.23842        -0.007988     -0.001536      0.004471
      3.56700      7.13527      7.13527         0.003005      0.010277      0.010277
      4.45145      8.02503      8.02503        -0.000075     -0.002352     -0.002352
      3.56531      3.56531      7.12815        -0.004723     -0.004723      0.007658
      4.45347      4.45347      8.02452         0.004904      0.004904      0.000734
      5.33999      3.55501      8.91498        -0.004401     -0.001032      0.007533
      6.23479      4.43342      9.82110         0.007677      0.002693     -0.010432
      3.55501      5.33999      8.91498        -0.001032     -0.004401      0.007533
      4.43342      6.23479      9.82110         0.002693      0.007677     -0.010432
      5.34041      5.34041     10.70174         0.003878      0.003878     -0.002080
      6.23665      6.23665     11.59099         0.004203      0.004203      0.004715
      5.37232      5.37232      7.15892         0.005974      0.005974     -0.003221
      6.20105      6.20105      8.14645         0.008116      0.008116     -0.013995
      7.11832      5.31731      8.95449         0.003627      0.004400      0.004156
      8.03444      6.19870      9.83544         0.003882      0.006172     -0.000125
[...]
      8.95110      7.00744      8.95110        -0.000290     -0.008279     -0.000290
      9.78056      7.99435      9.78056        -0.007377     -0.003038     -0.007377
      7.00744      8.95110      8.95110        -0.008279     -0.000290     -0.000290
      7.99435      9.78056      9.78056        -0.003038     -0.007377     -0.007377
      8.89625      8.89625     10.67553        -0.005512     -0.005512     -0.008866
      9.79317      9.79317     11.57219        -0.002886     -0.002886     -0.002714
      8.95110      8.95110      7.00744        -0.000290     -0.000290     -0.008279
      9.78056      9.78056      7.99435        -0.007377     -0.007377     -0.003038
     10.67553      8.89625      8.89625        -0.008866     -0.005512     -0.005512
     11.57219      9.79317      9.79317        -0.002714     -0.002886     -0.002886
      8.89625     10.67553      8.89625        -0.005512     -0.008866     -0.005512
      9.79317     11.57219      9.79317        -0.002886     -0.002714     -0.002886
     10.68711     10.68711     10.68711         0.012033      0.012033      0.012033
     11.58430     11.58430     11.58430         0.016467      0.016467      0.016467
      7.57440      7.57440      7.57440        -0.033664     -0.033664     -0.033664
    total drift:                               -0.058831     -0.059356     -0.059145

  FREE ENERGIE OF THE ION-ELECTRON SYSTEM (eV)
  free  energy   TOTEN  =     -1116.27383155 eV

  energy  without entropy=    -1116.19130879  energy(sigma->0) =    -1116.24632396

 d Force = 0.7195715E-04[-0.967E-05, 0.154E-03]  d Energy = 0.6179078E-04 0.102E-04
 d Force = 0.1184158E+00[ 0.118E+00, 0.119E+00]  d Ewald  = 0.1184158E+00 0.141E-08

 reached required accuracy - stopping structural energy minimisation
 writing wavefunctions